
Gurobi 9.5.0 (linux64) logging started Thu Dec  7 23:23:25 2023

Set parameter LogFile to value "/lustre1/scratch/348/vsc34888/JointResearch/05.Models/06.Benchmarking/B.Operation_cost/RTS24_mod1_ByStages_nc400/openStarNet_RTS24_mod1_ByStages_nc400.log"
Set parameter Method to value 2
Set parameter MIPFocus to value 1
Set parameter Presolve to value 2
Set parameter RINS to value 100
Set parameter MIPGap to value 0.01
Set parameter Threads to value 36
Set parameter TimeLimit to value 259200
Set parameter IterationLimit to value 760000000
Gurobi Optimizer version 9.5.0 build v9.5.0rc5 (linux64)
Thread count: 36 physical cores, 36 logical processors, using up to 36 threads
Optimize a model with 154783 rows, 104518 columns and 422124 nonzeros
Model fingerprint: 0x6b2f1f30
Variable types: 104497 continuous, 21 integer (21 binary)
Coefficient statistics:
  Matrix range     [2e-03, 3e+02]
  Objective range  [1e+00, 1e+00]
  Bounds range     [3e-05, 3e+00]
  RHS range        [3e-05, 3e+00]
Presolve removed 92182 rows and 53024 columns
Presolve time: 0.65s
Presolved: 62601 rows, 51494 columns, 226121 nonzeros
Variable types: 51473 continuous, 21 integer (21 binary)
Root relaxation presolved: 62601 rows, 51494 columns, 226121 nonzeros

Root barrier log...

Ordering time: 0.01s

Barrier statistics:
 Dense cols : 21
 AA' NZ     : 4.199e+05
 Factor NZ  : 1.244e+06 (roughly 60 MB of memory)
 Factor Ops : 2.951e+07 (less than 1 second per iteration)
 Threads    : 35

                  Objective                Residual
Iter       Primal          Dual         Primal    Dual     Compl     Time
   0   1.55753683e+06 -1.33926938e+08  5.44e+00 8.50e+01  2.62e+03     1s
   1   2.34344017e+05 -3.51860493e+07  7.46e-01 1.18e-08  3.73e+02     1s
   2   8.92321466e+04 -1.94006290e+07  2.12e-01 3.93e-09  1.59e+02     1s
   3   3.53623531e+04 -2.06105844e+06  8.40e-03 1.16e-09  1.46e+01     1s
   4   1.82354012e+04 -2.74381406e+05  3.91e-04 1.52e-10  2.01e+00     1s
   5   6.02647565e+03 -5.58418410e+04  5.21e-05 2.87e-11  4.24e-01     1s
   6   1.27443988e+03 -1.11232837e+04  3.80e-06 5.45e-12  8.50e-02     1s
   7   5.20101356e+02 -3.27038018e+03  1.22e-07 1.55e-12  2.60e-02     1s
   8   2.79292636e+02 -9.74787262e+02  3.39e-08 4.55e-13  8.60e-03     1s
   9   1.99593287e+02 -3.80572416e+02  1.79e-08 4.55e-13  3.98e-03     1s
  10   1.42685363e+02 -1.14204380e+02  9.06e-09 4.55e-13  1.76e-03     1s
  11   1.13246780e+02 -1.53724555e+01  5.23e-09 4.55e-13  8.82e-04     1s
  12   9.12727941e+01  2.59844503e+01  2.66e-09 4.55e-13  4.48e-04     1s
  13   8.77530941e+01  4.27582187e+01  2.22e-09 4.55e-13  3.08e-04     1s
  14   8.24543238e+01  4.49480264e+01  1.58e-09 4.55e-13  2.57e-04     1s
  15   7.80630448e+01  4.91294528e+01  1.03e-09 4.55e-13  1.98e-04     2s
  16   7.67958152e+01  5.38651063e+01  8.76e-10 4.55e-13  1.57e-04     2s
  17   7.48657950e+01  5.82466003e+01  6.40e-10 4.55e-13  1.14e-04     2s
  18   7.29602089e+01  6.02969695e+01  4.13e-10 9.09e-13  8.68e-05     2s
  19   7.24554214e+01  6.31104552e+01  3.50e-10 4.55e-13  6.41e-05     2s
  20   7.19257433e+01  6.39033220e+01  2.80e-10 4.55e-13  5.50e-05     2s
  21   7.16368087e+01  6.62449847e+01  2.43e-10 4.55e-13  3.70e-05     2s
  22   7.10761406e+01  6.69074226e+01  1.75e-10 4.55e-13  2.86e-05     2s
  23   7.06098426e+01  6.72650924e+01  1.18e-10 4.55e-13  2.29e-05     2s
  24   7.03992132e+01  6.84959245e+01  9.37e-11 4.55e-13  1.30e-05     2s
  25   7.01799805e+01  6.87143464e+01  6.76e-11 4.55e-13  1.00e-05     2s
  26   6.99792826e+01  6.91979990e+01  4.24e-11 4.55e-13  5.36e-06     2s
  27   6.98000306e+01  6.94334746e+01  3.35e-11 9.09e-13  2.51e-06     2s
  28   6.97830338e+01  6.94407314e+01  3.38e-11 9.09e-13  2.35e-06     2s
  29   6.97298306e+01  6.95059159e+01  2.27e-11 9.09e-13  1.54e-06     2s
  30   6.97023216e+01  6.95537578e+01  1.68e-10 9.09e-13  1.02e-06     2s
  31   6.96735892e+01  6.95907484e+01  1.51e-10 4.55e-13  5.68e-07     2s
  32   6.96565914e+01  6.96202653e+01  4.34e-10 4.55e-13  2.49e-07     2s
  33   6.96495810e+01  6.96233260e+01  8.32e-10 4.55e-13  1.80e-07     2s
  34   6.96405731e+01  6.96255939e+01  9.60e-10 4.55e-13  1.03e-07     2s
  35   6.96347771e+01  6.96276221e+01  5.28e-10 4.55e-13  4.91e-08     2s
  36   6.96338733e+01  6.96296582e+01  3.42e-10 4.55e-13  2.89e-08     2s
  37   6.96334889e+01  6.96312577e+01  2.65e-10 4.55e-13  1.53e-08     2s
  38   6.96330058e+01  6.96314695e+01  1.37e-09 4.55e-13  1.05e-08     2s
  39   6.96324755e+01  6.96318854e+01  1.09e-09 9.09e-13  4.05e-09     2s
  40   6.96324535e+01  6.96320451e+01  1.03e-09 4.55e-13  2.80e-09     2s
  41   6.96321669e+01  6.96320770e+01  8.47e-11 4.55e-13  6.16e-10     2s
  42   6.96321634e+01  6.96321321e+01  2.13e-10 1.86e-12  2.15e-10     2s
  43   6.96321531e+01  6.96321528e+01  3.52e-09 9.09e-13  2.40e-12     2s

Barrier solved model in 43 iterations and 2.43 seconds (2.06 work units)
Optimal objective 6.96321531e+01


Root relaxation: objective 6.963215e+01, 9194 iterations, 2.16 seconds (1.73 work units)

    Nodes    |    Current Node    |     Objective Bounds      |     Work
 Expl Unexpl |  Obj  Depth IntInf | Incumbent    BestBd   Gap | It/Node Time

     0     0   69.63215    0   16          -   69.63215      -     -    4s
H    0     0                     110.4009325   69.63215  36.9%     -    5s
     0     0   70.71602    0   12  110.40093   70.71602  35.9%     -    9s
H    0     0                     107.2178533   70.71602  34.0%     -   10s
H    0     0                     102.4627459   70.78653  30.9%     -   11s
     0     0   70.78653    0   12  102.46275   70.78653  30.9%     -   11s
     0     0   70.79699    0   14  102.46275   70.79699  30.9%     -   12s
     0     0   70.79726    0   13  102.46275   70.79726  30.9%     -   12s
     0     0   70.79726    0   13  102.46275   70.79726  30.9%     -   12s
     0     0   70.98327    0   12  102.46275   70.98327  30.7%     -   14s
     0     0   70.98803    0   13  102.46275   70.98803  30.7%     -   17s
     0     0   70.98964    0   13  102.46275   70.98964  30.7%     -   17s
     0     0   70.98965    0   13  102.46275   70.98965  30.7%     -   17s
H    0     0                      96.7828057   71.10726  26.5%     -   19s
     0     0   71.10726    0   12   96.78281   71.10726  26.5%     -   19s
     0     0   71.17226    0   16   96.78281   71.17226  26.5%     -   21s
     0     0   71.17641    0   12   96.78281   71.17641  26.5%     -   21s
     0     0   71.17696    0   13   96.78281   71.17696  26.5%     -   21s
H    0     0                      95.0890249   71.18714  25.1%     -   23s
     0     0   71.18714    0   11   95.08902   71.18714  25.1%     -   23s
     0     0   71.18911    0   11   95.08902   71.18911  25.1%     -   24s
     0     0   71.18939    0   11   95.08902   71.18939  25.1%     -   24s
     0     0   71.87574    0   11   95.08902   71.87574  24.4%     -   24s
     0     0   71.87574    0   11   95.08902   71.87574  24.4%     -   25s
     0     0   71.87574    0   11   95.08902   71.87574  24.4%     -   25s
     0     0   71.87574    0   11   95.08902   71.87574  24.4%     -   29s
H    0     0                      86.8743001   71.87574  17.3%     -  170s
     0     2   71.87574    0   11   86.87430   71.87574  17.3%     -  172s
     3     8   72.26412    2   17   86.87430   71.87574  17.3%  5690  177s
    15    30   72.51408    4   16   86.87430   72.45343  16.6%  3794  182s
    31    52   72.59113    5   15   86.87430   72.53139  16.5%  3363  185s
    61    84   73.13184    6   14   86.87430   72.80388  16.2%  3218  193s
    97   110   74.23305    7   13   86.87430   73.14737  15.8%  3136  243s
   133   128   75.70625    7   13   86.87430   74.23895  14.5%  2965  246s
   169   138   75.34338    8   12   86.87430   74.28015  14.5%  2852  251s
   205   130   79.53465    9   12   86.87430   74.28015  14.5%  2746  257s
   253   150   82.74189   10   11   86.87430   74.28015  14.5%  2571  283s
   293   166     cutoff   10        86.87430   74.28015  14.5%  2522  289s
   335   186   86.49631   11    9   86.87430   74.28015  14.5%  2562  297s
   379   187     cutoff   11        86.87430   74.28015  14.5%  2553  303s
   435   201     cutoff   12        86.87430   75.76256  12.8%  2450  308s
   493   208     cutoff    9        86.87430   75.76256  12.8%  2405  313s
   557   195     cutoff    9        86.87430   75.76626  12.8%  2306  365s
   620   210     cutoff    9        86.87430   76.02327  12.5%  2222  370s
   705   216   81.52732    9   11   86.87430   76.02327  12.5%  2126  375s
   794   228   85.11520   10   10   86.87430   76.02327  12.5%  2050  382s
   898   234     cutoff   11        86.87430   76.02327  12.5%  1966  668s
   989   249     cutoff   11        86.87430   76.02327  12.5%  1910  675s
  1108   227   80.77268    9   11   86.87430   76.02327  12.5%  1859  681s
  1254   210   83.16729   10   10   86.87430   76.02327  12.5%  1770  687s
  1395   184   85.36148   12    8   86.87430   78.38199  9.78%  1716  986s
  1551   163   82.61970   12    8   86.87430   78.38199  9.78%  1655 1012s
  1649   143   84.44150   13    7   86.87430   78.38199  9.78%  1627 1018s
  1854    75     cutoff   15        86.87430   79.67612  8.29%  1548 1025s
  2154    19   86.20224   12    8   86.87430   79.67612  8.29%  1449 1032s
  2225    13   86.29537   12    8   86.87430   79.67612  8.29%  1426 1035s
  2278     0     cutoff   10        86.87430   84.25713  3.01%  1413 1041s

Cutting planes:
  Gomory: 3
  Implied bound: 212
  MIR: 1557
  Relax-and-lift: 236

Explored 2298 nodes (3252813 simplex iterations) in 1041.22 seconds (1810.09 work units)
Thread count was 36 (of 36 available processors)

Solution count 6: 86.8743 95.089 96.7828 ... 110.401

Optimal solution found (tolerance 1.00e-02)
Best objective 8.687430008019e+01, best bound 8.687430008019e+01, gap 0.0000%

Gurobi 9.5.0 (linux64) logging started Thu Dec  7 23:42:03 2023

Set parameter LogFile to value "/lustre1/scratch/348/vsc34888/JointResearch/05.Models/06.Benchmarking/B.Operation_cost/RTS24_mod1_ByStages_nc400/openStarNet_RTS24_mod1_ByStages_nc400.log"
Set parameter Method to value 2
Set parameter MIPFocus to value 1
Set parameter Presolve to value 2
Set parameter RINS to value 100
Set parameter MIPGap to value 0.01
Set parameter Threads to value 36
Set parameter TimeLimit to value 259200
Set parameter IterationLimit to value 760000000
No parameters matching 'relax_integrality' found
Gurobi Optimizer version 9.5.0 build v9.5.0rc5 (linux64)
Thread count: 36 physical cores, 36 logical processors, using up to 36 threads
Optimize a model with 154783 rows, 104497 columns and 385479 nonzeros
Model fingerprint: 0x84449f32
Coefficient statistics:
  Matrix range     [2e-03, 3e+02]
  Objective range  [1e+00, 1e+00]
  Bounds range     [3e-05, 3e+00]
  RHS range        [3e-05, 2e+01]
Presolve removed 129933 rows and 60109 columns
Presolve time: 0.21s
Presolved: 24850 rows, 45120 columns, 111395 nonzeros

Ordering time: 0.00s

Barrier statistics:
 AA' NZ     : 6.765e+04
 Factor NZ  : 2.320e+05 (roughly 25 MB of memory)
 Factor Ops : 3.080e+06 (less than 1 second per iteration)
 Threads    : 36

                  Objective                Residual
Iter       Primal          Dual         Primal    Dual     Compl     Time
   0   1.43971390e+07 -6.68642228e+07  4.34e+01 1.36e+02  1.63e+04     0s
   1   7.64416743e+05 -5.42321326e+07  2.14e+00 1.82e-12  1.37e+03     0s
   2   1.17932699e+05 -1.13923692e+07  3.32e-01 3.00e-12  2.05e+02     0s
   3   5.17048729e+04 -2.13742119e+06  5.48e-02 4.32e-12  3.22e+01     0s
   4   2.82604802e+04 -4.92589591e+05  5.84e-03 1.76e-12  6.73e+00     0s
   5   1.16833825e+04 -2.06939495e+05  6.42e-05 9.09e-13  2.75e+00     0s
   6   4.02414303e+03 -2.91254123e+04  6.05e-06 6.82e-13  4.17e-01     0s
   7   1.06963106e+03 -5.89791481e+03  3.77e-07 9.09e-13  8.77e-02     0s
   8   4.98020425e+02 -1.84283992e+03  1.30e-08 9.09e-13  2.95e-02     0s
   9   2.64639852e+02 -6.63850730e+02  2.26e-09 4.55e-13  1.17e-02     0s
  10   1.90409127e+02 -2.29491838e+02  1.09e-09 4.55e-13  5.28e-03     0s
  11   1.36852750e+02 -5.14364985e+01  4.44e-10 9.09e-13  2.37e-03     0s
  12   1.04356459e+02  6.24277980e+01  1.38e-10 9.09e-13  5.28e-04     0s
  13   9.20539558e+01  7.60042317e+01  8.99e-11 4.55e-13  2.02e-04     0s
  14   8.93791168e+01  8.21886726e+01  6.91e-11 9.09e-13  9.05e-05     0s
  15   8.75962464e+01  8.50450343e+01  2.57e-10 4.55e-13  3.21e-05     0s
  16   8.72078195e+01  8.62523451e+01  2.80e-10 4.55e-13  1.20e-05     0s
  17   8.69924972e+01  8.66298906e+01  1.29e-10 6.82e-13  4.56e-06     0s
  18   8.69005493e+01  8.68394306e+01  1.09e-10 4.55e-13  7.69e-07     0s
  19   8.68805405e+01  8.68691155e+01  2.22e-09 9.09e-13  1.44e-07     0s
  20   8.68744109e+01  8.68736577e+01  1.36e-09 4.55e-13  9.48e-09     1s
  21   8.68743029e+01  8.68742932e+01  7.09e-10 4.55e-13  1.21e-10     1s
  22   8.68743001e+01  8.68743001e+01  6.92e-10 4.55e-13  1.21e-13     1s
  23   8.68743001e+01  8.68743001e+01  5.82e-12 4.55e-13  1.21e-16     1s

Barrier solved model in 23 iterations and 0.54 seconds (0.51 work units)
Optimal objective 8.68743001e+01

Crossover log...

    5635 DPushes remaining with DInf 0.0000000e+00                 1s
       0 DPushes remaining with DInf 0.0000000e+00                 1s

    1491 PPushes remaining with PInf 0.0000000e+00                 1s
       0 PPushes remaining with PInf 0.0000000e+00                 1s

  Push phase complete: Pinf 0.0000000e+00, Dinf 3.2283402e-13      1s

Iteration    Objective       Primal Inf.    Dual Inf.      Time
    1549    8.6874300e+01   0.000000e+00   0.000000e+00      1s

Use crossover to convert LP symmetric solution to basic solution...
Crossover log...

       0 DPushes remaining with DInf 0.0000000e+00                 1s

    1190 PPushes remaining with PInf 0.0000000e+00                 1s
       0 PPushes remaining with PInf 0.0000000e+00                 1s

  Push phase complete: Pinf 0.0000000e+00, Dinf 2.8795095e-13      1s

Iteration    Objective       Primal Inf.    Dual Inf.      Time
    2882    8.6874300e+01   0.000000e+00   0.000000e+00      1s

Solved in 2882 iterations and 0.87 seconds (0.71 work units)
Optimal objective  8.687430008e+01
